; Benchmark for LTL-sketching problem
(set-logic QF_UF)
(set-info :status unknown)
(declare-fun z_0_0 () Bool)
(declare-fun z_0_1 () Bool)
(declare-fun z_0_10 () Bool)
(declare-fun z_0_20 () Bool)
(declare-fun z_0_31 () Bool)
(declare-fun z_0_33 () Bool)
(declare-fun z_0_39 () Bool)
(declare-fun z_0_51 () Bool)
(declare-fun z_0_58 () Bool)
(declare-fun z_0_70 () Bool)
(declare-fun x_0_G () Bool)
(declare-fun x_0_F () Bool)
(declare-fun x_0_X () Bool)
(declare-fun x_0_! () Bool)
(declare-fun z_1_0 () Bool)
(declare-fun z_1_1 () Bool)
(declare-fun z_1_2 () Bool)
(declare-fun z_1_9 () Bool)
(declare-fun z_1_8 () Bool)
(declare-fun z_1_7 () Bool)
(declare-fun z_1_6 () Bool)
(declare-fun z_1_5 () Bool)
(declare-fun z_1_4 () Bool)
(declare-fun z_1_3 () Bool)
(declare-fun z_0_2 () Bool)
(declare-fun z_0_3 () Bool)
(declare-fun z_0_4 () Bool)
(declare-fun z_0_5 () Bool)
(declare-fun z_0_6 () Bool)
(declare-fun z_0_7 () Bool)
(declare-fun z_0_8 () Bool)
(declare-fun z_0_9 () Bool)
(declare-fun z_1_10 () Bool)
(declare-fun z_1_11 () Bool)
(declare-fun z_1_19 () Bool)
(declare-fun z_1_18 () Bool)
(declare-fun z_1_17 () Bool)
(declare-fun z_1_16 () Bool)
(declare-fun z_1_15 () Bool)
(declare-fun z_1_14 () Bool)
(declare-fun z_1_13 () Bool)
(declare-fun z_1_12 () Bool)
(declare-fun z_0_11 () Bool)
(declare-fun z_0_12 () Bool)
(declare-fun z_0_13 () Bool)
(declare-fun z_0_14 () Bool)
(declare-fun z_0_15 () Bool)
(declare-fun z_0_16 () Bool)
(declare-fun z_0_17 () Bool)
(declare-fun z_0_18 () Bool)
(declare-fun z_0_19 () Bool)
(declare-fun z_1_20 () Bool)
(declare-fun z_1_21 () Bool)
(declare-fun z_1_30 () Bool)
(declare-fun z_1_29 () Bool)
(declare-fun z_1_28 () Bool)
(declare-fun z_1_27 () Bool)
(declare-fun z_1_26 () Bool)
(declare-fun z_1_25 () Bool)
(declare-fun z_1_24 () Bool)
(declare-fun z_1_23 () Bool)
(declare-fun z_1_22 () Bool)
(declare-fun z_0_21 () Bool)
(declare-fun z_0_22 () Bool)
(declare-fun z_0_23 () Bool)
(declare-fun z_0_24 () Bool)
(declare-fun z_0_25 () Bool)
(declare-fun z_0_26 () Bool)
(declare-fun z_0_27 () Bool)
(declare-fun z_0_28 () Bool)
(declare-fun z_0_29 () Bool)
(declare-fun z_0_30 () Bool)
(declare-fun z_1_31 () Bool)
(declare-fun z_1_32 () Bool)
(declare-fun z_0_32 () Bool)
(declare-fun z_1_33 () Bool)
(declare-fun z_1_34 () Bool)
(declare-fun z_1_38 () Bool)
(declare-fun z_1_37 () Bool)
(declare-fun z_1_36 () Bool)
(declare-fun z_1_35 () Bool)
(declare-fun z_0_34 () Bool)
(declare-fun z_0_35 () Bool)
(declare-fun z_0_36 () Bool)
(declare-fun z_0_37 () Bool)
(declare-fun z_0_38 () Bool)
(declare-fun z_1_39 () Bool)
(declare-fun z_1_40 () Bool)
(declare-fun z_1_50 () Bool)
(declare-fun z_1_49 () Bool)
(declare-fun z_1_48 () Bool)
(declare-fun z_1_47 () Bool)
(declare-fun z_1_46 () Bool)
(declare-fun z_1_45 () Bool)
(declare-fun z_1_44 () Bool)
(declare-fun z_1_43 () Bool)
(declare-fun z_1_42 () Bool)
(declare-fun z_1_41 () Bool)
(declare-fun z_0_40 () Bool)
(declare-fun z_0_41 () Bool)
(declare-fun z_0_42 () Bool)
(declare-fun z_0_43 () Bool)
(declare-fun z_0_44 () Bool)
(declare-fun z_0_45 () Bool)
(declare-fun z_0_46 () Bool)
(declare-fun z_0_47 () Bool)
(declare-fun z_0_48 () Bool)
(declare-fun z_0_49 () Bool)
(declare-fun z_0_50 () Bool)
(declare-fun z_1_51 () Bool)
(declare-fun z_1_52 () Bool)
(declare-fun z_1_57 () Bool)
(declare-fun z_1_56 () Bool)
(declare-fun z_1_55 () Bool)
(declare-fun z_1_54 () Bool)
(declare-fun z_1_53 () Bool)
(declare-fun z_0_52 () Bool)
(declare-fun z_0_53 () Bool)
(declare-fun z_0_54 () Bool)
(declare-fun z_0_55 () Bool)
(declare-fun z_0_56 () Bool)
(declare-fun z_0_57 () Bool)
(declare-fun z_1_58 () Bool)
(declare-fun z_1_59 () Bool)
(declare-fun z_1_69 () Bool)
(declare-fun z_1_68 () Bool)
(declare-fun z_1_67 () Bool)
(declare-fun z_1_66 () Bool)
(declare-fun z_1_65 () Bool)
(declare-fun z_1_64 () Bool)
(declare-fun z_1_63 () Bool)
(declare-fun z_1_62 () Bool)
(declare-fun z_1_61 () Bool)
(declare-fun z_1_60 () Bool)
(declare-fun z_0_59 () Bool)
(declare-fun z_0_60 () Bool)
(declare-fun z_0_61 () Bool)
(declare-fun z_0_62 () Bool)
(declare-fun z_0_63 () Bool)
(declare-fun z_0_64 () Bool)
(declare-fun z_0_65 () Bool)
(declare-fun z_0_66 () Bool)
(declare-fun z_0_67 () Bool)
(declare-fun z_0_68 () Bool)
(declare-fun z_0_69 () Bool)
(declare-fun z_1_70 () Bool)
(declare-fun z_1_71 () Bool)
(declare-fun z_1_73 () Bool)
(declare-fun z_1_72 () Bool)
(declare-fun z_0_71 () Bool)
(declare-fun z_0_72 () Bool)
(declare-fun z_0_73 () Bool)
(assert
 z_0_0)
(assert
 (not z_0_1))
(assert
 (not z_0_10))
(assert
 (not z_0_20))
(assert
 (not z_0_31))
(assert
 (not z_0_33))
(assert
 (not z_0_39))
(assert
 (not z_0_51))
(assert
 (not z_0_58))
(assert
 (not z_0_70))
(assert
 (or x_0_! x_0_X x_0_F x_0_G))
(assert
 (let (($x15 (not x_0_G)))
 (let (($x13 (not x_0_F)))
 (let (($x19 (or $x13 $x15)))
 (let (($x11 (not x_0_X)))
 (let (($x18 (or $x11 $x15)))
 (let (($x17 (or $x11 $x13)))
 (let (($x10 (not x_0_!)))
 (let (($x16 (or $x10 $x15)))
 (let (($x14 (or $x10 $x13)))
 (let (($x12 (or $x10 $x11)))
 (and $x12 $x14 $x16 $x17 $x18 $x19))))))))))))
(assert
 (=> x_0_! (= z_0_0 (not z_1_0))))
(assert
 (let (($x47 (= z_0_0 z_1_0)))
 (=> x_0_X $x47)))
(assert
 (=> x_0_F (= z_0_0 (or z_1_0 z_0_0))))
(assert
 (let (($x57 (= z_0_0 (and z_1_0 z_0_0))))
 (=> x_0_G $x57)))
(assert
 (=> x_0_! (= z_0_1 (not z_1_1))))
(assert
 (let (($x69 (= z_0_1 z_1_2)))
 (=> x_0_X $x69)))
(assert
 (let (($x79 (or z_1_1 z_1_2 z_1_3 z_1_4 z_1_5 z_1_6 z_1_7 z_1_8 z_1_9)))
 (let (($x80 (= z_0_1 $x79)))
 (=> x_0_F $x80))))
(assert
 (let (($x83 (and z_1_1 z_1_2 z_1_3 z_1_4 z_1_5 z_1_6 z_1_7 z_1_8 z_1_9)))
 (let (($x84 (= z_0_1 $x83)))
 (=> x_0_G $x84))))
(assert
 (=> x_0_! (= z_0_2 (not z_1_2))))
(assert
 (let (($x94 (= z_0_2 z_1_3)))
 (=> x_0_X $x94)))
(assert
 (let (($x98 (= z_0_2 (or z_1_2 z_1_3 z_1_4 z_1_5 z_1_6 z_1_7 z_1_8 z_1_9))))
 (=> x_0_F $x98)))
(assert
 (let (($x102 (= z_0_2 (and z_1_2 z_1_3 z_1_4 z_1_5 z_1_6 z_1_7 z_1_8 z_1_9))))
 (=> x_0_G $x102)))
(assert
 (=> x_0_! (= z_0_3 (not z_1_3))))
(assert
 (let (($x112 (= z_0_3 z_1_4)))
 (=> x_0_X $x112)))
(assert
 (let (($x116 (= z_0_3 (or z_1_3 z_1_4 z_1_5 z_1_6 z_1_7 z_1_8 z_1_9))))
 (=> x_0_F $x116)))
(assert
 (let (($x120 (= z_0_3 (and z_1_3 z_1_4 z_1_5 z_1_6 z_1_7 z_1_8 z_1_9))))
 (=> x_0_G $x120)))
(assert
 (=> x_0_! (= z_0_4 (not z_1_4))))
(assert
 (let (($x130 (= z_0_4 z_1_5)))
 (=> x_0_X $x130)))
(assert
 (let (($x134 (= z_0_4 (or z_1_4 z_1_5 z_1_6 z_1_7 z_1_8 z_1_9))))
 (=> x_0_F $x134)))
(assert
 (let (($x138 (= z_0_4 (and z_1_4 z_1_5 z_1_6 z_1_7 z_1_8 z_1_9))))
 (=> x_0_G $x138)))
(assert
 (=> x_0_! (= z_0_5 (not z_1_5))))
(assert
 (let (($x148 (= z_0_5 z_1_6)))
 (=> x_0_X $x148)))
(assert
 (let (($x151 (or z_1_5 z_1_6 z_1_7 z_1_8 z_1_9)))
 (let (($x152 (= z_0_5 $x151)))
 (=> x_0_F $x152))))
(assert
 (let (($x156 (= z_0_5 (and z_1_5 z_1_6 z_1_7 z_1_8 z_1_9))))
 (=> x_0_G $x156)))
(assert
 (=> x_0_! (= z_0_6 (not z_1_6))))
(assert
 (let (($x166 (= z_0_6 z_1_7)))
 (=> x_0_X $x166)))
(assert
 (=> x_0_F (= z_0_6 (or z_1_6 z_1_7 z_1_8 z_1_9 z_1_5))))
(assert
 (let (($x175 (= z_0_6 (and z_1_6 z_1_7 z_1_8 z_1_9 z_1_5))))
 (=> x_0_G $x175)))
(assert
 (=> x_0_! (= z_0_7 (not z_1_7))))
(assert
 (let (($x185 (= z_0_7 z_1_8)))
 (=> x_0_X $x185)))
(assert
 (=> x_0_F (= z_0_7 (or z_1_7 z_1_8 z_1_9 z_1_5 z_1_6))))
(assert
 (let (($x194 (= z_0_7 (and z_1_7 z_1_8 z_1_9 z_1_5 z_1_6))))
 (=> x_0_G $x194)))
(assert
 (=> x_0_! (= z_0_8 (not z_1_8))))
(assert
 (let (($x204 (= z_0_8 z_1_9)))
 (=> x_0_X $x204)))
(assert
 (=> x_0_F (= z_0_8 (or z_1_8 z_1_9 z_1_5 z_1_6 z_1_7))))
(assert
 (let (($x213 (= z_0_8 (and z_1_8 z_1_9 z_1_5 z_1_6 z_1_7))))
 (=> x_0_G $x213)))
(assert
 (=> x_0_! (= z_0_9 (not z_1_9))))
(assert
 (let (($x223 (= z_0_9 z_1_5)))
 (=> x_0_X $x223)))
(assert
 (let (($x227 (= z_0_9 (or z_1_9 z_0_5))))
 (=> x_0_F $x227)))
(assert
 (let (($x231 (= z_0_9 (and z_1_9 z_0_5))))
 (=> x_0_G $x231)))
(assert
 (=> x_0_! (= z_0_10 (not z_1_10))))
(assert
 (let (($x243 (= z_0_10 z_1_11)))
 (=> x_0_X $x243)))
(assert
 (let (($x254 (or z_1_10 z_1_11 z_1_12 z_1_13 z_1_14 z_1_15 z_1_16 z_1_17 z_1_18 z_1_19)))
 (let (($x255 (= z_0_10 $x254)))
 (=> x_0_F $x255))))
(assert
 (let (($x258 (and z_1_10 z_1_11 z_1_12 z_1_13 z_1_14 z_1_15 z_1_16 z_1_17 z_1_18 z_1_19)))
 (let (($x259 (= z_0_10 $x258)))
 (=> x_0_G $x259))))
(assert
 (=> x_0_! (= z_0_11 (not z_1_11))))
(assert
 (let (($x269 (= z_0_11 z_1_12)))
 (=> x_0_X $x269)))
(assert
 (let (($x272 (or z_1_11 z_1_12 z_1_13 z_1_14 z_1_15 z_1_16 z_1_17 z_1_18 z_1_19)))
 (let (($x273 (= z_0_11 $x272)))
 (=> x_0_F $x273))))
(assert
 (let (($x276 (and z_1_11 z_1_12 z_1_13 z_1_14 z_1_15 z_1_16 z_1_17 z_1_18 z_1_19)))
 (let (($x277 (= z_0_11 $x276)))
 (=> x_0_G $x277))))
(assert
 (=> x_0_! (= z_0_12 (not z_1_12))))
(assert
 (let (($x287 (= z_0_12 z_1_13)))
 (=> x_0_X $x287)))
(assert
 (let (($x290 (or z_1_12 z_1_13 z_1_14 z_1_15 z_1_16 z_1_17 z_1_18 z_1_19)))
 (let (($x291 (= z_0_12 $x290)))
 (=> x_0_F $x291))))
(assert
 (let (($x294 (and z_1_12 z_1_13 z_1_14 z_1_15 z_1_16 z_1_17 z_1_18 z_1_19)))
 (let (($x295 (= z_0_12 $x294)))
 (=> x_0_G $x295))))
(assert
 (=> x_0_! (= z_0_13 (not z_1_13))))
(assert
 (let (($x305 (= z_0_13 z_1_14)))
 (=> x_0_X $x305)))
(assert
 (let (($x309 (= z_0_13 (or z_1_13 z_1_14 z_1_15 z_1_16 z_1_17 z_1_18 z_1_19))))
 (=> x_0_F $x309)))
(assert
 (let (($x313 (= z_0_13 (and z_1_13 z_1_14 z_1_15 z_1_16 z_1_17 z_1_18 z_1_19))))
 (=> x_0_G $x313)))
(assert
 (=> x_0_! (= z_0_14 (not z_1_14))))
(assert
 (let (($x323 (= z_0_14 z_1_15)))
 (=> x_0_X $x323)))
(assert
 (let (($x327 (= z_0_14 (or z_1_14 z_1_15 z_1_16 z_1_17 z_1_18 z_1_19))))
 (=> x_0_F $x327)))
(assert
 (let (($x331 (= z_0_14 (and z_1_14 z_1_15 z_1_16 z_1_17 z_1_18 z_1_19))))
 (=> x_0_G $x331)))
(assert
 (=> x_0_! (= z_0_15 (not z_1_15))))
(assert
 (let (($x341 (= z_0_15 z_1_16)))
 (=> x_0_X $x341)))
(assert
 (let (($x345 (= z_0_15 (or z_1_15 z_1_16 z_1_17 z_1_18 z_1_19))))
 (=> x_0_F $x345)))
(assert
 (let (($x349 (= z_0_15 (and z_1_15 z_1_16 z_1_17 z_1_18 z_1_19))))
 (=> x_0_G $x349)))
(assert
 (=> x_0_! (= z_0_16 (not z_1_16))))
(assert
 (let (($x359 (= z_0_16 z_1_17)))
 (=> x_0_X $x359)))
(assert
 (let (($x362 (or z_1_16 z_1_17 z_1_18 z_1_19)))
 (let (($x363 (= z_0_16 $x362)))
 (=> x_0_F $x363))))
(assert
 (let (($x367 (= z_0_16 (and z_1_16 z_1_17 z_1_18 z_1_19))))
 (=> x_0_G $x367)))
(assert
 (=> x_0_! (= z_0_17 (not z_1_17))))
(assert
 (let (($x377 (= z_0_17 z_1_18)))
 (=> x_0_X $x377)))
(assert
 (=> x_0_F (= z_0_17 (or z_1_17 z_1_18 z_1_19 z_1_16))))
(assert
 (let (($x386 (= z_0_17 (and z_1_17 z_1_18 z_1_19 z_1_16))))
 (=> x_0_G $x386)))
(assert
 (=> x_0_! (= z_0_18 (not z_1_18))))
(assert
 (let (($x396 (= z_0_18 z_1_19)))
 (=> x_0_X $x396)))
(assert
 (=> x_0_F (= z_0_18 (or z_1_18 z_1_19 z_1_16 z_1_17))))
(assert
 (let (($x405 (= z_0_18 (and z_1_18 z_1_19 z_1_16 z_1_17))))
 (=> x_0_G $x405)))
(assert
 (=> x_0_! (= z_0_19 (not z_1_19))))
(assert
 (let (($x415 (= z_0_19 z_1_16)))
 (=> x_0_X $x415)))
(assert
 (let (($x419 (= z_0_19 (or z_1_19 z_0_16))))
 (=> x_0_F $x419)))
(assert
 (let (($x423 (= z_0_19 (and z_1_19 z_0_16))))
 (=> x_0_G $x423)))
(assert
 (=> x_0_! (= z_0_20 (not z_1_20))))
(assert
 (let (($x435 (= z_0_20 z_1_21)))
 (=> x_0_X $x435)))
(assert
 (let (($x447 (or z_1_20 z_1_21 z_1_22 z_1_23 z_1_24 z_1_25 z_1_26 z_1_27 z_1_28 z_1_29 z_1_30)))
 (let (($x448 (= z_0_20 $x447)))
 (=> x_0_F $x448))))
(assert
 (let (($x451 (and z_1_20 z_1_21 z_1_22 z_1_23 z_1_24 z_1_25 z_1_26 z_1_27 z_1_28 z_1_29 z_1_30)))
 (let (($x452 (= z_0_20 $x451)))
 (=> x_0_G $x452))))
(assert
 (=> x_0_! (= z_0_21 (not z_1_21))))
(assert
 (let (($x462 (= z_0_21 z_1_22)))
 (=> x_0_X $x462)))
(assert
 (let (($x465 (or z_1_21 z_1_22 z_1_23 z_1_24 z_1_25 z_1_26 z_1_27 z_1_28 z_1_29 z_1_30)))
 (let (($x466 (= z_0_21 $x465)))
 (=> x_0_F $x466))))
(assert
 (let (($x469 (and z_1_21 z_1_22 z_1_23 z_1_24 z_1_25 z_1_26 z_1_27 z_1_28 z_1_29 z_1_30)))
 (let (($x470 (= z_0_21 $x469)))
 (=> x_0_G $x470))))
(assert
 (=> x_0_! (= z_0_22 (not z_1_22))))
(assert
 (let (($x480 (= z_0_22 z_1_23)))
 (=> x_0_X $x480)))
(assert
 (let (($x483 (or z_1_22 z_1_23 z_1_24 z_1_25 z_1_26 z_1_27 z_1_28 z_1_29 z_1_30)))
 (let (($x484 (= z_0_22 $x483)))
 (=> x_0_F $x484))))
(assert
 (let (($x487 (and z_1_22 z_1_23 z_1_24 z_1_25 z_1_26 z_1_27 z_1_28 z_1_29 z_1_30)))
 (let (($x488 (= z_0_22 $x487)))
 (=> x_0_G $x488))))
(assert
 (=> x_0_! (= z_0_23 (not z_1_23))))
(assert
 (let (($x498 (= z_0_23 z_1_24)))
 (=> x_0_X $x498)))
(assert
 (let (($x501 (or z_1_23 z_1_24 z_1_25 z_1_26 z_1_27 z_1_28 z_1_29 z_1_30)))
 (let (($x502 (= z_0_23 $x501)))
 (=> x_0_F $x502))))
(assert
 (let (($x505 (and z_1_23 z_1_24 z_1_25 z_1_26 z_1_27 z_1_28 z_1_29 z_1_30)))
 (let (($x506 (= z_0_23 $x505)))
 (=> x_0_G $x506))))
(assert
 (=> x_0_! (= z_0_24 (not z_1_24))))
(assert
 (let (($x516 (= z_0_24 z_1_25)))
 (=> x_0_X $x516)))
(assert
 (let (($x520 (= z_0_24 (or z_1_24 z_1_25 z_1_26 z_1_27 z_1_28 z_1_29 z_1_30))))
 (=> x_0_F $x520)))
(assert
 (let (($x524 (= z_0_24 (and z_1_24 z_1_25 z_1_26 z_1_27 z_1_28 z_1_29 z_1_30))))
 (=> x_0_G $x524)))
(assert
 (=> x_0_! (= z_0_25 (not z_1_25))))
(assert
 (let (($x534 (= z_0_25 z_1_26)))
 (=> x_0_X $x534)))
(assert
 (let (($x537 (or z_1_25 z_1_26 z_1_27 z_1_28 z_1_29 z_1_30)))
 (let (($x538 (= z_0_25 $x537)))
 (=> x_0_F $x538))))
(assert
 (let (($x542 (= z_0_25 (and z_1_25 z_1_26 z_1_27 z_1_28 z_1_29 z_1_30))))
 (=> x_0_G $x542)))
(assert
 (=> x_0_! (= z_0_26 (not z_1_26))))
(assert
 (let (($x552 (= z_0_26 z_1_27)))
 (=> x_0_X $x552)))
(assert
 (=> x_0_F (= z_0_26 (or z_1_26 z_1_27 z_1_28 z_1_29 z_1_30 z_1_25))))
(assert
 (let (($x561 (= z_0_26 (and z_1_26 z_1_27 z_1_28 z_1_29 z_1_30 z_1_25))))
 (=> x_0_G $x561)))
(assert
 (=> x_0_! (= z_0_27 (not z_1_27))))
(assert
 (let (($x571 (= z_0_27 z_1_28)))
 (=> x_0_X $x571)))
(assert
 (=> x_0_F (= z_0_27 (or z_1_27 z_1_28 z_1_29 z_1_30 z_1_25 z_1_26))))
(assert
 (let (($x580 (= z_0_27 (and z_1_27 z_1_28 z_1_29 z_1_30 z_1_25 z_1_26))))
 (=> x_0_G $x580)))
(assert
 (=> x_0_! (= z_0_28 (not z_1_28))))
(assert
 (let (($x590 (= z_0_28 z_1_29)))
 (=> x_0_X $x590)))
(assert
 (=> x_0_F (= z_0_28 (or z_1_28 z_1_29 z_1_30 z_1_25 z_1_26 z_1_27))))
(assert
 (let (($x599 (= z_0_28 (and z_1_28 z_1_29 z_1_30 z_1_25 z_1_26 z_1_27))))
 (=> x_0_G $x599)))
(assert
 (=> x_0_! (= z_0_29 (not z_1_29))))
(assert
 (let (($x609 (= z_0_29 z_1_30)))
 (=> x_0_X $x609)))
(assert
 (=> x_0_F (= z_0_29 (or z_1_29 z_1_30 z_1_25 z_1_26 z_1_27 z_1_28))))
(assert
 (let (($x618 (= z_0_29 (and z_1_29 z_1_30 z_1_25 z_1_26 z_1_27 z_1_28))))
 (=> x_0_G $x618)))
(assert
 (=> x_0_! (= z_0_30 (not z_1_30))))
(assert
 (let (($x628 (= z_0_30 z_1_25)))
 (=> x_0_X $x628)))
(assert
 (let (($x632 (= z_0_30 (or z_1_30 z_0_25))))
 (=> x_0_F $x632)))
(assert
 (let (($x636 (= z_0_30 (and z_1_30 z_0_25))))
 (=> x_0_G $x636)))
(assert
 (=> x_0_! (= z_0_31 (not z_1_31))))
(assert
 (let (($x648 (= z_0_31 z_1_32)))
 (=> x_0_X $x648)))
(assert
 (let (($x651 (or z_1_31 z_1_32 z_1_3 z_1_4 z_1_5 z_1_6 z_1_7 z_1_8 z_1_9)))
 (=> x_0_F (= z_0_31 $x651))))
(assert
 (let (($x657 (and z_1_31 z_1_32 z_1_3 z_1_4 z_1_5 z_1_6 z_1_7 z_1_8 z_1_9)))
 (let (($x658 (= z_0_31 $x657)))
 (=> x_0_G $x658))))
(assert
 (=> x_0_! (= z_0_32 (not z_1_32))))
(assert
 (let (($x668 (= z_0_32 z_1_3)))
 (=> x_0_X $x668)))
(assert
 (let (($x672 (= z_0_32 (or z_1_32 z_1_3 z_1_4 z_1_5 z_1_6 z_1_7 z_1_8 z_1_9))))
 (=> x_0_F $x672)))
(assert
 (let (($x678 (= z_0_32 (and z_1_32 z_1_3 z_1_4 z_1_5 z_1_6 z_1_7 z_1_8 z_1_9))))
 (=> x_0_G $x678)))
(assert
 (=> x_0_! (= z_0_33 (not z_1_33))))
(assert
 (let (($x690 (= z_0_33 z_1_34)))
 (=> x_0_X $x690)))
(assert
 (let (($x698 (= z_0_33 (or z_1_33 z_1_34 z_1_35 z_1_36 z_1_37 z_1_38))))
 (=> x_0_F $x698)))
(assert
 (let (($x702 (= z_0_33 (and z_1_33 z_1_34 z_1_35 z_1_36 z_1_37 z_1_38))))
 (=> x_0_G $x702)))
(assert
 (=> x_0_! (= z_0_34 (not z_1_34))))
(assert
 (let (($x712 (= z_0_34 z_1_35)))
 (=> x_0_X $x712)))
(assert
 (let (($x715 (or z_1_34 z_1_35 z_1_36 z_1_37 z_1_38)))
 (let (($x716 (= z_0_34 $x715)))
 (=> x_0_F $x716))))
(assert
 (let (($x720 (= z_0_34 (and z_1_34 z_1_35 z_1_36 z_1_37 z_1_38))))
 (=> x_0_G $x720)))
(assert
 (=> x_0_! (= z_0_35 (not z_1_35))))
(assert
 (let (($x730 (= z_0_35 z_1_36)))
 (=> x_0_X $x730)))
(assert
 (=> x_0_F (= z_0_35 (or z_1_35 z_1_36 z_1_37 z_1_38 z_1_34))))
(assert
 (let (($x739 (= z_0_35 (and z_1_35 z_1_36 z_1_37 z_1_38 z_1_34))))
 (=> x_0_G $x739)))
(assert
 (=> x_0_! (= z_0_36 (not z_1_36))))
(assert
 (let (($x749 (= z_0_36 z_1_37)))
 (=> x_0_X $x749)))
(assert
 (=> x_0_F (= z_0_36 (or z_1_36 z_1_37 z_1_38 z_1_34 z_1_35))))
(assert
 (let (($x758 (= z_0_36 (and z_1_36 z_1_37 z_1_38 z_1_34 z_1_35))))
 (=> x_0_G $x758)))
(assert
 (=> x_0_! (= z_0_37 (not z_1_37))))
(assert
 (let (($x768 (= z_0_37 z_1_38)))
 (=> x_0_X $x768)))
(assert
 (=> x_0_F (= z_0_37 (or z_1_37 z_1_38 z_1_34 z_1_35 z_1_36))))
(assert
 (let (($x777 (= z_0_37 (and z_1_37 z_1_38 z_1_34 z_1_35 z_1_36))))
 (=> x_0_G $x777)))
(assert
 (=> x_0_! (= z_0_38 (not z_1_38))))
(assert
 (let (($x787 (= z_0_38 z_1_34)))
 (=> x_0_X $x787)))
(assert
 (let (($x791 (= z_0_38 (or z_1_38 z_0_34))))
 (=> x_0_F $x791)))
(assert
 (let (($x795 (= z_0_38 (and z_1_38 z_0_34))))
 (=> x_0_G $x795)))
(assert
 (=> x_0_! (= z_0_39 (not z_1_39))))
(assert
 (let (($x807 (= z_0_39 z_1_40)))
 (=> x_0_X $x807)))
(assert
 (let (($x820 (or z_1_39 z_1_40 z_1_41 z_1_42 z_1_43 z_1_44 z_1_45 z_1_46 z_1_47 z_1_48 z_1_49 z_1_50)))
 (let (($x821 (= z_0_39 $x820)))
 (=> x_0_F $x821))))
(assert
 (let (($x824 (and z_1_39 z_1_40 z_1_41 z_1_42 z_1_43 z_1_44 z_1_45 z_1_46 z_1_47 z_1_48 z_1_49 z_1_50)))
 (let (($x825 (= z_0_39 $x824)))
 (=> x_0_G $x825))))
(assert
 (=> x_0_! (= z_0_40 (not z_1_40))))
(assert
 (let (($x835 (= z_0_40 z_1_41)))
 (=> x_0_X $x835)))
(assert
 (let (($x838 (or z_1_40 z_1_41 z_1_42 z_1_43 z_1_44 z_1_45 z_1_46 z_1_47 z_1_48 z_1_49 z_1_50)))
 (let (($x839 (= z_0_40 $x838)))
 (=> x_0_F $x839))))
(assert
 (let (($x842 (and z_1_40 z_1_41 z_1_42 z_1_43 z_1_44 z_1_45 z_1_46 z_1_47 z_1_48 z_1_49 z_1_50)))
 (let (($x843 (= z_0_40 $x842)))
 (=> x_0_G $x843))))
(assert
 (=> x_0_! (= z_0_41 (not z_1_41))))
(assert
 (let (($x853 (= z_0_41 z_1_42)))
 (=> x_0_X $x853)))
(assert
 (let (($x856 (or z_1_41 z_1_42 z_1_43 z_1_44 z_1_45 z_1_46 z_1_47 z_1_48 z_1_49 z_1_50)))
 (let (($x857 (= z_0_41 $x856)))
 (=> x_0_F $x857))))
(assert
 (let (($x860 (and z_1_41 z_1_42 z_1_43 z_1_44 z_1_45 z_1_46 z_1_47 z_1_48 z_1_49 z_1_50)))
 (let (($x861 (= z_0_41 $x860)))
 (=> x_0_G $x861))))
(assert
 (=> x_0_! (= z_0_42 (not z_1_42))))
(assert
 (let (($x871 (= z_0_42 z_1_43)))
 (=> x_0_X $x871)))
(assert
 (let (($x874 (or z_1_42 z_1_43 z_1_44 z_1_45 z_1_46 z_1_47 z_1_48 z_1_49 z_1_50)))
 (let (($x875 (= z_0_42 $x874)))
 (=> x_0_F $x875))))
(assert
 (let (($x878 (and z_1_42 z_1_43 z_1_44 z_1_45 z_1_46 z_1_47 z_1_48 z_1_49 z_1_50)))
 (let (($x879 (= z_0_42 $x878)))
 (=> x_0_G $x879))))
(assert
 (=> x_0_! (= z_0_43 (not z_1_43))))
(assert
 (let (($x889 (= z_0_43 z_1_44)))
 (=> x_0_X $x889)))
(assert
 (let (($x892 (or z_1_43 z_1_44 z_1_45 z_1_46 z_1_47 z_1_48 z_1_49 z_1_50)))
 (let (($x893 (= z_0_43 $x892)))
 (=> x_0_F $x893))))
(assert
 (let (($x896 (and z_1_43 z_1_44 z_1_45 z_1_46 z_1_47 z_1_48 z_1_49 z_1_50)))
 (let (($x897 (= z_0_43 $x896)))
 (=> x_0_G $x897))))
(assert
 (=> x_0_! (= z_0_44 (not z_1_44))))
(assert
 (let (($x907 (= z_0_44 z_1_45)))
 (=> x_0_X $x907)))
(assert
 (let (($x911 (= z_0_44 (or z_1_44 z_1_45 z_1_46 z_1_47 z_1_48 z_1_49 z_1_50))))
 (=> x_0_F $x911)))
(assert
 (let (($x915 (= z_0_44 (and z_1_44 z_1_45 z_1_46 z_1_47 z_1_48 z_1_49 z_1_50))))
 (=> x_0_G $x915)))
(assert
 (=> x_0_! (= z_0_45 (not z_1_45))))
(assert
 (let (($x925 (= z_0_45 z_1_46)))
 (=> x_0_X $x925)))
(assert
 (let (($x928 (or z_1_45 z_1_46 z_1_47 z_1_48 z_1_49 z_1_50)))
 (let (($x929 (= z_0_45 $x928)))
 (=> x_0_F $x929))))
(assert
 (let (($x933 (= z_0_45 (and z_1_45 z_1_46 z_1_47 z_1_48 z_1_49 z_1_50))))
 (=> x_0_G $x933)))
(assert
 (=> x_0_! (= z_0_46 (not z_1_46))))
(assert
 (let (($x943 (= z_0_46 z_1_47)))
 (=> x_0_X $x943)))
(assert
 (=> x_0_F (= z_0_46 (or z_1_46 z_1_47 z_1_48 z_1_49 z_1_50 z_1_45))))
(assert
 (let (($x952 (= z_0_46 (and z_1_46 z_1_47 z_1_48 z_1_49 z_1_50 z_1_45))))
 (=> x_0_G $x952)))
(assert
 (=> x_0_! (= z_0_47 (not z_1_47))))
(assert
 (let (($x962 (= z_0_47 z_1_48)))
 (=> x_0_X $x962)))
(assert
 (=> x_0_F (= z_0_47 (or z_1_47 z_1_48 z_1_49 z_1_50 z_1_45 z_1_46))))
(assert
 (let (($x971 (= z_0_47 (and z_1_47 z_1_48 z_1_49 z_1_50 z_1_45 z_1_46))))
 (=> x_0_G $x971)))
(assert
 (=> x_0_! (= z_0_48 (not z_1_48))))
(assert
 (let (($x981 (= z_0_48 z_1_49)))
 (=> x_0_X $x981)))
(assert
 (=> x_0_F (= z_0_48 (or z_1_48 z_1_49 z_1_50 z_1_45 z_1_46 z_1_47))))
(assert
 (let (($x990 (= z_0_48 (and z_1_48 z_1_49 z_1_50 z_1_45 z_1_46 z_1_47))))
 (=> x_0_G $x990)))
(assert
 (=> x_0_! (= z_0_49 (not z_1_49))))
(assert
 (let (($x1000 (= z_0_49 z_1_50)))
 (=> x_0_X $x1000)))
(assert
 (=> x_0_F (= z_0_49 (or z_1_49 z_1_50 z_1_45 z_1_46 z_1_47 z_1_48))))
(assert
 (let (($x1009 (= z_0_49 (and z_1_49 z_1_50 z_1_45 z_1_46 z_1_47 z_1_48))))
 (=> x_0_G $x1009)))
(assert
 (=> x_0_! (= z_0_50 (not z_1_50))))
(assert
 (let (($x1019 (= z_0_50 z_1_45)))
 (=> x_0_X $x1019)))
(assert
 (let (($x1023 (= z_0_50 (or z_1_50 z_0_45))))
 (=> x_0_F $x1023)))
(assert
 (let (($x1027 (= z_0_50 (and z_1_50 z_0_45))))
 (=> x_0_G $x1027)))
(assert
 (=> x_0_! (= z_0_51 (not z_1_51))))
(assert
 (let (($x1039 (= z_0_51 z_1_52)))
 (=> x_0_X $x1039)))
(assert
 (let (($x1048 (= z_0_51 (or z_1_51 z_1_52 z_1_53 z_1_54 z_1_55 z_1_56 z_1_57))))
 (=> x_0_F $x1048)))
(assert
 (let (($x1052 (= z_0_51 (and z_1_51 z_1_52 z_1_53 z_1_54 z_1_55 z_1_56 z_1_57))))
 (=> x_0_G $x1052)))
(assert
 (=> x_0_! (= z_0_52 (not z_1_52))))
(assert
 (let (($x1062 (= z_0_52 z_1_53)))
 (=> x_0_X $x1062)))
(assert
 (let (($x1066 (= z_0_52 (or z_1_52 z_1_53 z_1_54 z_1_55 z_1_56 z_1_57))))
 (=> x_0_F $x1066)))
(assert
 (let (($x1070 (= z_0_52 (and z_1_52 z_1_53 z_1_54 z_1_55 z_1_56 z_1_57))))
 (=> x_0_G $x1070)))
(assert
 (=> x_0_! (= z_0_53 (not z_1_53))))
(assert
 (let (($x1080 (= z_0_53 z_1_54)))
 (=> x_0_X $x1080)))
(assert
 (let (($x1084 (= z_0_53 (or z_1_53 z_1_54 z_1_55 z_1_56 z_1_57))))
 (=> x_0_F $x1084)))
(assert
 (let (($x1088 (= z_0_53 (and z_1_53 z_1_54 z_1_55 z_1_56 z_1_57))))
 (=> x_0_G $x1088)))
(assert
 (=> x_0_! (= z_0_54 (not z_1_54))))
(assert
 (let (($x1098 (= z_0_54 z_1_55)))
 (=> x_0_X $x1098)))
(assert
 (let (($x1102 (= z_0_54 (or z_1_54 z_1_55 z_1_56 z_1_57))))
 (=> x_0_F $x1102)))
(assert
 (let (($x1106 (= z_0_54 (and z_1_54 z_1_55 z_1_56 z_1_57))))
 (=> x_0_G $x1106)))
(assert
 (=> x_0_! (= z_0_55 (not z_1_55))))
(assert
 (let (($x1116 (= z_0_55 z_1_56)))
 (=> x_0_X $x1116)))
(assert
 (let (($x1120 (= z_0_55 (or z_1_55 z_1_56 z_1_57))))
 (=> x_0_F $x1120)))
(assert
 (let (($x1124 (= z_0_55 (and z_1_55 z_1_56 z_1_57))))
 (=> x_0_G $x1124)))
(assert
 (=> x_0_! (= z_0_56 (not z_1_56))))
(assert
 (let (($x1134 (= z_0_56 z_1_57)))
 (=> x_0_X $x1134)))
(assert
 (let (($x1138 (= z_0_56 (or z_1_56 z_1_57))))
 (=> x_0_F $x1138)))
(assert
 (let (($x1142 (= z_0_56 (and z_1_56 z_1_57))))
 (=> x_0_G $x1142)))
(assert
 (=> x_0_! (= z_0_57 (not z_1_57))))
(assert
 (let (($x1152 (= z_0_57 z_1_56)))
 (=> x_0_X $x1152)))
(assert
 (let (($x1156 (= z_0_57 (or z_1_57 z_0_56))))
 (=> x_0_F $x1156)))
(assert
 (let (($x1160 (= z_0_57 (and z_1_57 z_0_56))))
 (=> x_0_G $x1160)))
(assert
 (=> x_0_! (= z_0_58 (not z_1_58))))
(assert
 (let (($x1172 (= z_0_58 z_1_59)))
 (=> x_0_X $x1172)))
(assert
 (let (($x1185 (or z_1_58 z_1_59 z_1_60 z_1_61 z_1_62 z_1_63 z_1_64 z_1_65 z_1_66 z_1_67 z_1_68 z_1_69)))
 (let (($x1186 (= z_0_58 $x1185)))
 (=> x_0_F $x1186))))
(assert
 (let (($x1189 (and z_1_58 z_1_59 z_1_60 z_1_61 z_1_62 z_1_63 z_1_64 z_1_65 z_1_66 z_1_67 z_1_68 z_1_69)))
 (let (($x1190 (= z_0_58 $x1189)))
 (=> x_0_G $x1190))))
(assert
 (=> x_0_! (= z_0_59 (not z_1_59))))
(assert
 (let (($x1200 (= z_0_59 z_1_60)))
 (=> x_0_X $x1200)))
(assert
 (let (($x1203 (or z_1_59 z_1_60 z_1_61 z_1_62 z_1_63 z_1_64 z_1_65 z_1_66 z_1_67 z_1_68 z_1_69)))
 (let (($x1204 (= z_0_59 $x1203)))
 (=> x_0_F $x1204))))
(assert
 (let (($x1207 (and z_1_59 z_1_60 z_1_61 z_1_62 z_1_63 z_1_64 z_1_65 z_1_66 z_1_67 z_1_68 z_1_69)))
 (let (($x1208 (= z_0_59 $x1207)))
 (=> x_0_G $x1208))))
(assert
 (=> x_0_! (= z_0_60 (not z_1_60))))
(assert
 (let (($x1218 (= z_0_60 z_1_61)))
 (=> x_0_X $x1218)))
(assert
 (let (($x1221 (or z_1_60 z_1_61 z_1_62 z_1_63 z_1_64 z_1_65 z_1_66 z_1_67 z_1_68 z_1_69)))
 (let (($x1222 (= z_0_60 $x1221)))
 (=> x_0_F $x1222))))
(assert
 (let (($x1225 (and z_1_60 z_1_61 z_1_62 z_1_63 z_1_64 z_1_65 z_1_66 z_1_67 z_1_68 z_1_69)))
 (let (($x1226 (= z_0_60 $x1225)))
 (=> x_0_G $x1226))))
(assert
 (=> x_0_! (= z_0_61 (not z_1_61))))
(assert
 (let (($x1236 (= z_0_61 z_1_62)))
 (=> x_0_X $x1236)))
(assert
 (let (($x1239 (or z_1_61 z_1_62 z_1_63 z_1_64 z_1_65 z_1_66 z_1_67 z_1_68 z_1_69)))
 (let (($x1240 (= z_0_61 $x1239)))
 (=> x_0_F $x1240))))
(assert
 (let (($x1243 (and z_1_61 z_1_62 z_1_63 z_1_64 z_1_65 z_1_66 z_1_67 z_1_68 z_1_69)))
 (let (($x1244 (= z_0_61 $x1243)))
 (=> x_0_G $x1244))))
(assert
 (=> x_0_! (= z_0_62 (not z_1_62))))
(assert
 (let (($x1254 (= z_0_62 z_1_63)))
 (=> x_0_X $x1254)))
(assert
 (let (($x1257 (or z_1_62 z_1_63 z_1_64 z_1_65 z_1_66 z_1_67 z_1_68 z_1_69)))
 (let (($x1258 (= z_0_62 $x1257)))
 (=> x_0_F $x1258))))
(assert
 (let (($x1261 (and z_1_62 z_1_63 z_1_64 z_1_65 z_1_66 z_1_67 z_1_68 z_1_69)))
 (let (($x1262 (= z_0_62 $x1261)))
 (=> x_0_G $x1262))))
(assert
 (=> x_0_! (= z_0_63 (not z_1_63))))
(assert
 (let (($x1272 (= z_0_63 z_1_64)))
 (=> x_0_X $x1272)))
(assert
 (let (($x1276 (= z_0_63 (or z_1_63 z_1_64 z_1_65 z_1_66 z_1_67 z_1_68 z_1_69))))
 (=> x_0_F $x1276)))
(assert
 (let (($x1280 (= z_0_63 (and z_1_63 z_1_64 z_1_65 z_1_66 z_1_67 z_1_68 z_1_69))))
 (=> x_0_G $x1280)))
(assert
 (=> x_0_! (= z_0_64 (not z_1_64))))
(assert
 (let (($x1290 (= z_0_64 z_1_65)))
 (=> x_0_X $x1290)))
(assert
 (let (($x1293 (or z_1_64 z_1_65 z_1_66 z_1_67 z_1_68 z_1_69)))
 (let (($x1294 (= z_0_64 $x1293)))
 (=> x_0_F $x1294))))
(assert
 (let (($x1298 (= z_0_64 (and z_1_64 z_1_65 z_1_66 z_1_67 z_1_68 z_1_69))))
 (=> x_0_G $x1298)))
(assert
 (=> x_0_! (= z_0_65 (not z_1_65))))
(assert
 (let (($x1308 (= z_0_65 z_1_66)))
 (=> x_0_X $x1308)))
(assert
 (=> x_0_F (= z_0_65 (or z_1_65 z_1_66 z_1_67 z_1_68 z_1_69 z_1_64))))
(assert
 (let (($x1317 (= z_0_65 (and z_1_65 z_1_66 z_1_67 z_1_68 z_1_69 z_1_64))))
 (=> x_0_G $x1317)))
(assert
 (=> x_0_! (= z_0_66 (not z_1_66))))
(assert
 (let (($x1327 (= z_0_66 z_1_67)))
 (=> x_0_X $x1327)))
(assert
 (=> x_0_F (= z_0_66 (or z_1_66 z_1_67 z_1_68 z_1_69 z_1_64 z_1_65))))
(assert
 (let (($x1336 (= z_0_66 (and z_1_66 z_1_67 z_1_68 z_1_69 z_1_64 z_1_65))))
 (=> x_0_G $x1336)))
(assert
 (=> x_0_! (= z_0_67 (not z_1_67))))
(assert
 (let (($x1346 (= z_0_67 z_1_68)))
 (=> x_0_X $x1346)))
(assert
 (=> x_0_F (= z_0_67 (or z_1_67 z_1_68 z_1_69 z_1_64 z_1_65 z_1_66))))
(assert
 (let (($x1355 (= z_0_67 (and z_1_67 z_1_68 z_1_69 z_1_64 z_1_65 z_1_66))))
 (=> x_0_G $x1355)))
(assert
 (=> x_0_! (= z_0_68 (not z_1_68))))
(assert
 (let (($x1365 (= z_0_68 z_1_69)))
 (=> x_0_X $x1365)))
(assert
 (=> x_0_F (= z_0_68 (or z_1_68 z_1_69 z_1_64 z_1_65 z_1_66 z_1_67))))
(assert
 (let (($x1374 (= z_0_68 (and z_1_68 z_1_69 z_1_64 z_1_65 z_1_66 z_1_67))))
 (=> x_0_G $x1374)))
(assert
 (=> x_0_! (= z_0_69 (not z_1_69))))
(assert
 (let (($x1384 (= z_0_69 z_1_64)))
 (=> x_0_X $x1384)))
(assert
 (let (($x1388 (= z_0_69 (or z_1_69 z_0_64))))
 (=> x_0_F $x1388)))
(assert
 (let (($x1392 (= z_0_69 (and z_1_69 z_0_64))))
 (=> x_0_G $x1392)))
(assert
 (=> x_0_! (= z_0_70 (not z_1_70))))
(assert
 (let (($x1404 (= z_0_70 z_1_71)))
 (=> x_0_X $x1404)))
(assert
 (let (($x1409 (or z_1_70 z_1_71 z_1_72 z_1_73 z_1_17 z_1_18 z_1_19 z_1_16)))
 (=> x_0_F (= z_0_70 $x1409))))
(assert
 (let (($x1415 (and z_1_70 z_1_71 z_1_72 z_1_73 z_1_17 z_1_18 z_1_19 z_1_16)))
 (let (($x1416 (= z_0_70 $x1415)))
 (=> x_0_G $x1416))))
(assert
 (=> x_0_! (= z_0_71 (not z_1_71))))
(assert
 (let (($x1426 (= z_0_71 z_1_72)))
 (=> x_0_X $x1426)))
(assert
 (let (($x1430 (= z_0_71 (or z_1_71 z_1_72 z_1_73 z_1_17 z_1_18 z_1_19 z_1_16))))
 (=> x_0_F $x1430)))
(assert
 (let (($x1436 (= z_0_71 (and z_1_71 z_1_72 z_1_73 z_1_17 z_1_18 z_1_19 z_1_16))))
 (=> x_0_G $x1436)))
(assert
 (=> x_0_! (= z_0_72 (not z_1_72))))
(assert
 (let (($x1446 (= z_0_72 z_1_73)))
 (=> x_0_X $x1446)))
(assert
 (=> x_0_F (= z_0_72 (or z_1_72 z_1_73 z_1_17 z_1_18 z_1_19 z_1_16))))
(assert
 (let (($x1456 (= z_0_72 (and z_1_72 z_1_73 z_1_17 z_1_18 z_1_19 z_1_16))))
 (=> x_0_G $x1456)))
(assert
 (=> x_0_! (= z_0_73 (not z_1_73))))
(assert
 (let (($x1466 (= z_0_73 z_1_17)))
 (=> x_0_X $x1466)))
(assert
 (=> x_0_F (= z_0_73 (or z_1_73 z_1_17 z_1_18 z_1_19 z_1_16))))
(assert
 (let (($x1476 (= z_0_73 (and z_1_73 z_1_17 z_1_18 z_1_19 z_1_16))))
 (=> x_0_G $x1476)))
(assert
 z_1_0)
(assert
 (not z_1_1))
(assert
 z_1_2)
(assert
 z_1_3)
(assert
 z_1_4)
(assert
 z_1_5)
(assert
 (not z_1_6))
(assert
 z_1_7)
(assert
 z_1_8)
(assert
 (not z_1_9))
(assert
 z_1_10)
(assert
 z_1_11)
(assert
 (not z_1_12))
(assert
 (not z_1_13))
(assert
 (not z_1_14))
(assert
 (not z_1_15))
(assert
 z_1_16)
(assert
 (not z_1_17))
(assert
 (not z_1_18))
(assert
 z_1_19)
(assert
 z_1_20)
(assert
 z_1_21)
(assert
 (not z_1_22))
(assert
 z_1_23)
(assert
 z_1_24)
(assert
 z_1_25)
(assert
 z_1_26)
(assert
 z_1_27)
(assert
 z_1_28)
(assert
 (not z_1_29))
(assert
 (not z_1_30))
(assert
 (not z_1_31))
(assert
 (not z_1_32))
(assert
 (not z_1_33))
(assert
 (not z_1_34))
(assert
 (not z_1_35))
(assert
 z_1_36)
(assert
 z_1_37)
(assert
 z_1_38)
(assert
 z_1_39)
(assert
 (not z_1_40))
(assert
 z_1_41)
(assert
 (not z_1_42))
(assert
 z_1_43)
(assert
 (not z_1_44))
(assert
 z_1_45)
(assert
 (not z_1_46))
(assert
 (not z_1_47))
(assert
 (not z_1_48))
(assert
 (not z_1_49))
(assert
 z_1_50)
(assert
 (not z_1_51))
(assert
 (not z_1_52))
(assert
 (not z_1_53))
(assert
 z_1_54)
(assert
 z_1_55)
(assert
 z_1_56)
(assert
 (not z_1_57))
(assert
 (not z_1_58))
(assert
 (not z_1_59))
(assert
 z_1_60)
(assert
 (not z_1_61))
(assert
 (not z_1_62))
(assert
 (not z_1_63))
(assert
 (not z_1_64))
(assert
 (not z_1_65))
(assert
 z_1_66)
(assert
 (not z_1_67))
(assert
 z_1_68)
(assert
 z_1_69)
(assert
 z_1_70)
(assert
 z_1_71)
(assert
 z_1_72)
(assert
 (not z_1_73))
(check-sat)

